language Essence 1.3

letting colouring be
        function(0 --> 21, 1 --> 8, 2 --> 23, 3 --> 5, 4 --> 1, 5 --> 12, 6 --> 22, 7 --> 0, 8 --> 15, 9 --> 17,
                 10 --> 16, 11 --> 10, 12 --> 18, 13 --> 4, 14 --> 2, 15 --> 14, 16 --> 24)
letting edgeID be
        function(0 --> 13, 1 --> 15, 2 --> 18, 3 --> 4, 4 --> 11, 5 --> 10, 6 --> 22, 7 --> 21, 8 --> 6, 9 --> 9,
                 10 --> 7, 11 --> 5, 12 --> 17, 13 --> 8, 14 --> 20, 15 --> 14, 16 --> 3, 17 --> 16, 18 --> 1,
                 19 --> 19, 20 --> 23, 21 --> 12, 22 --> 2, 23 --> 24)
